c Arquivo convertido de cubic_1000.txt
p edge 1000 1500
e 0 540
e 0 550
e 0 830
e 1 41
e 1 522
e 1 802
e 2 417
e 2 826
e 2 907
e 3 128
e 3 524
e 3 633
e 4 430
e 4 903
e 4 963
e 5 365
e 5 781
e 5 827
e 6 45
e 6 608
e 6 934
e 7 69
e 7 271
e 7 500
e 8 36
e 8 65
e 8 311
e 9 301
e 9 760
e 9 924
e 10 87
e 10 738
e 10 929
e 11 63
e 11 154
e 11 945
e 12 398
e 12 702
e 12 998
e 13 341
e 13 788
e 13 865
e 14 492
e 14 807
e 14 841
e 15 108
e 15 380
e 15 780
e 16 67
e 16 683
e 16 693
e 17 141
e 17 617
e 17 626
e 18 332
e 18 540
e 18 914
e 19 23
e 19 159
e 19 991
e 20 66
e 20 752
e 20 840
e 21 325
e 21 411
e 21 914
e 22 200
e 22 676
e 22 947
e 23 76
e 23 783
e 24 315
e 24 663
e 24 801
e 25 233
e 25 294
e 25 939
e 26 337
e 26 361
e 26 859
e 27 157
e 27 369
e 27 632
e 28 65
e 28 92
e 28 134
e 29 129
e 29 438
e 29 668
e 30 219
e 30 733
e 30 882
e 31 286
e 31 667
e 31 900
e 32 242
e 32 247
e 32 799
e 33 49
e 33 769
e 33 823
e 34 104
e 34 258
e 34 389
e 35 47
e 35 927
e 35 978
e 36 651
e 36 660
e 37 222
e 37 268
e 37 692
e 38 146
e 38 655
e 38 982
e 39 674
e 39 730
e 39 856
e 40 189
e 40 196
e 40 639
e 41 565
e 41 579
e 42 602
e 42 647
e 42 787
e 43 48
e 43 381
e 43 819
e 44 143
e 44 201
e 44 585
e 45 190
e 45 874
e 46 395
e 46 606
e 46 795
e 47 323
e 47 496
e 48 711
e 48 884
e 49 658
e 49 782
e 50 78
e 50 190
e 50 887
e 51 443
e 51 929
e 51 966
e 52 97
e 52 395
e 52 655
e 53 95
e 53 617
e 53 695
e 54 187
e 54 710
e 54 897
e 55 248
e 55 423
e 55 708
e 56 263
e 56 635
e 56 963
e 57 522
e 57 797
e 57 883
e 58 168
e 58 234
e 58 846
e 59 508
e 59 937
e 59 964
e 60 519
e 60 726
e 60 929
e 61 163
e 61 523
e 61 615
e 62 256
e 62 902
e 62 903
e 63 347
e 63 936
e 64 505
e 64 756
e 64 981
e 65 255
e 66 348
e 66 760
e 67 390
e 67 966
e 68 217
e 68 322
e 68 820
e 69 522
e 69 789
e 70 623
e 70 743
e 70 990
e 71 187
e 71 693
e 71 758
e 72 436
e 72 618
e 72 915
e 73 326
e 73 585
e 73 687
e 74 201
e 74 535
e 74 749
e 75 289
e 75 438
e 75 746
e 76 114
e 76 970
e 77 564
e 77 574
e 77 945
e 78 106
e 78 238
e 79 109
e 79 133
e 79 321
e 80 169
e 80 392
e 80 545
e 81 273
e 81 357
e 81 870
e 82 211
e 82 471
e 82 645
e 83 366
e 83 721
e 83 896
e 84 315
e 84 546
e 84 565
e 85 321
e 85 413
e 85 909
e 86 723
e 86 813
e 86 954
e 87 490
e 87 814
e 88 330
e 88 536
e 88 718
e 89 383
e 89 419
e 89 735
e 90 159
e 90 578
e 90 942
e 91 737
e 91 831
e 91 933
e 92 470
e 92 507
e 93 98
e 93 457
e 93 819
e 94 149
e 94 434
e 94 447
e 95 411
e 95 664
e 96 163
e 96 526
e 96 935
e 97 520
e 97 861
e 98 583
e 98 772
e 99 369
e 99 903
e 99 919
e 100 115
e 100 261
e 100 570
e 101 651
e 101 705
e 101 724
e 102 105
e 102 142
e 102 449
e 103 219
e 103 230
e 103 444
e 104 487
e 104 977
e 105 283
e 105 969
e 106 143
e 106 303
e 107 147
e 107 329
e 107 560
e 108 217
e 108 887
e 109 318
e 109 796
e 110 564
e 110 795
e 110 987
e 111 335
e 111 465
e 111 587
e 112 129
e 112 362
e 112 988
e 113 193
e 113 398
e 113 580
e 114 262
e 114 380
e 115 441
e 115 582
e 116 295
e 116 510
e 116 765
e 117 134
e 117 538
e 117 558
e 118 153
e 118 316
e 118 971
e 119 231
e 119 447
e 119 482
e 120 175
e 120 195
e 120 210
e 121 537
e 121 590
e 121 717
e 122 372
e 122 607
e 122 693
e 123 713
e 123 757
e 123 802
e 124 313
e 124 677
e 124 807
e 125 172
e 125 379
e 125 556
e 126 769
e 126 830
e 126 994
e 127 712
e 127 978
e 127 998
e 128 198
e 128 831
e 129 506
e 130 608
e 130 705
e 130 918
e 131 185
e 131 267
e 131 872
e 132 407
e 132 570
e 132 966
e 133 287
e 133 370
e 134 605
e 135 635
e 135 654
e 135 912
e 136 825
e 136 919
e 136 968
e 137 224
e 137 384
e 137 829
e 138 498
e 138 501
e 138 877
e 139 233
e 139 339
e 139 463
e 140 481
e 140 674
e 140 804
e 141 593
e 141 787
e 142 542
e 142 569
e 143 359
e 144 261
e 144 428
e 144 586
e 145 180
e 145 424
e 145 794
e 146 152
e 146 847
e 147 197
e 147 911
e 148 372
e 148 856
e 148 946
e 149 150
e 149 580
e 150 263
e 150 331
e 151 330
e 151 447
e 151 602
e 152 208
e 152 296
e 153 344
e 153 631
e 154 801
e 154 919
e 155 407
e 155 661
e 155 947
e 156 423
e 156 871
e 156 874
e 157 416
e 157 848
e 158 384
e 158 572
e 158 734
e 159 598
e 160 202
e 160 637
e 160 753
e 161 265
e 161 704
e 161 891
e 162 615
e 162 863
e 162 926
e 163 205
e 164 584
e 164 601
e 164 711
e 165 476
e 165 836
e 165 860
e 166 251
e 166 753
e 166 944
e 167 640
e 167 790
e 167 976
e 168 345
e 168 878
e 169 211
e 169 307
e 170 250
e 170 865
e 170 866
e 171 196
e 171 531
e 171 774
e 172 438
e 172 592
e 173 208
e 173 336
e 173 356
e 174 179
e 174 388
e 174 474
e 175 513
e 175 590
e 176 714
e 176 886
e 176 986
e 177 363
e 177 588
e 177 712
e 178 243
e 178 437
e 178 491
e 179 627
e 179 631
e 180 462
e 180 938
e 181 619
e 181 690
e 181 722
e 182 204
e 182 655
e 182 924
e 183 349
e 183 680
e 183 786
e 184 434
e 184 637
e 184 824
e 185 207
e 185 226
e 186 270
e 186 295
e 186 320
e 187 768
e 188 263
e 188 296
e 188 404
e 189 220
e 189 982
e 190 926
e 191 265
e 191 486
e 191 488
e 192 328
e 192 575
e 192 722
e 193 436
e 193 762
e 194 569
e 194 639
e 194 763
e 195 937
e 195 999
e 196 680
e 197 513
e 197 893
e 198 404
e 198 448
e 199 240
e 199 816
e 199 828
e 200 715
e 200 755
e 201 750
e 202 444
e 202 792
e 203 517
e 203 547
e 203 829
e 204 702
e 204 734
e 205 719
e 205 843
e 206 533
e 206 536
e 206 675
e 207 764
e 207 911
e 208 670
e 209 528
e 209 573
e 209 699
e 210 497
e 210 506
e 211 953
e 212 515
e 212 543
e 212 636
e 213 406
e 213 437
e 213 803
e 214 244
e 214 280
e 214 580
e 215 557
e 215 596
e 215 946
e 216 593
e 216 727
e 216 798
e 217 477
e 218 459
e 218 466
e 218 736
e 219 971
e 220 691
e 220 846
e 221 325
e 221 727
e 221 779
e 222 328
e 222 905
e 223 482
e 223 617
e 223 855
e 224 541
e 224 627
e 225 478
e 225 640
e 225 691
e 226 452
e 226 738
e 227 681
e 227 730
e 227 847
e 228 456
e 228 616
e 228 749
e 229 338
e 229 489
e 229 854
e 230 317
e 230 369
e 231 239
e 231 949
e 232 358
e 232 520
e 232 729
e 233 864
e 234 468
e 234 719
e 235 356
e 235 607
e 235 983
e 236 351
e 236 415
e 236 784
e 237 275
e 237 746
e 237 842
e 238 880
e 238 992
e 239 688
e 239 852
e 240 264
e 240 692
e 241 590
e 241 694
e 241 838
e 242 329
e 242 997
e 243 302
e 243 698
e 244 766
e 244 991
e 245 572
e 245 867
e 245 923
e 246 562
e 246 952
e 246 994
e 247 638
e 247 664
e 248 401
e 248 810
e 249 503
e 249 735
e 249 758
e 250 258
e 250 365
e 251 713
e 251 952
e 252 268
e 252 591
e 252 944
e 253 290
e 253 507
e 253 516
e 254 468
e 254 611
e 254 973
e 255 433
e 255 503
e 256 365
e 256 600
e 257 297
e 257 403
e 257 596
e 258 880
e 259 601
e 259 703
e 259 771
e 260 275
e 260 768
e 260 791
e 261 481
e 262 279
e 262 811
e 264 292
e 264 759
e 265 534
e 266 319
e 266 634
e 266 834
e 267 684
e 267 770
e 268 380
e 269 271
e 269 781
e 269 805
e 270 638
e 270 970
e 271 964
e 272 535
e 272 735
e 272 751
e 273 341
e 273 741
e 274 397
e 274 452
e 274 552
e 275 350
e 276 305
e 276 459
e 276 595
e 277 548
e 277 594
e 277 882
e 278 589
e 278 663
e 278 883
e 279 359
e 279 362
e 280 463
e 280 552
e 281 489
e 281 863
e 281 990
e 282 397
e 282 673
e 282 951
e 283 485
e 283 558
e 284 307
e 284 423
e 284 708
e 285 500
e 285 709
e 285 906
e 286 392
e 286 518
e 287 644
e 287 652
e 288 704
e 288 764
e 288 771
e 289 921
e 289 943
e 290 364
e 290 583
e 291 612
e 291 704
e 291 967
e 292 568
e 292 962
e 293 497
e 293 623
e 293 644
e 294 485
e 294 948
e 295 751
e 296 526
e 297 403
e 297 681
e 298 313
e 298 374
e 298 682
e 299 554
e 299 846
e 299 891
e 300 531
e 300 553
e 300 888
e 301 402
e 301 889
e 302 827
e 302 842
e 303 628
e 303 883
e 304 373
e 304 616
e 304 909
e 305 334
e 305 486
e 306 574
e 306 773
e 306 995
e 307 662
e 308 357
e 308 825
e 308 879
e 309 397
e 309 444
e 309 908
e 310 528
e 310 989
e 310 994
e 311 967
e 311 983
e 312 473
e 312 660
e 312 989
e 313 665
e 314 466
e 314 765
e 314 840
e 315 412
e 316 400
e 316 442
e 317 408
e 317 755
e 318 751
e 318 936
e 319 649
e 319 754
e 320 495
e 320 811
e 321 677
e 322 374
e 322 772
e 323 414
e 323 639
e 324 422
e 324 748
e 324 857
e 325 434
e 326 759
e 326 824
e 327 518
e 327 589
e 327 973
e 328 489
e 329 880
e 330 642
e 331 344
e 331 766
e 332 348
e 332 901
e 333 712
e 333 936
e 333 951
e 334 795
e 334 974
e 335 370
e 335 652
e 336 342
e 336 899
e 337 342
e 337 504
e 338 478
e 338 663
e 339 520
e 339 972
e 340 473
e 340 483
e 340 805
e 341 699
e 342 980
e 343 409
e 343 469
e 343 941
e 344 984
e 345 477
e 345 987
e 346 371
e 346 568
e 346 685
e 347 382
e 347 784
e 348 611
e 349 692
e 349 898
e 350 386
e 350 498
e 351 457
e 351 845
e 352 413
e 352 779
e 352 860
e 353 790
e 353 845
e 353 908
e 354 562
e 354 646
e 354 684
e 355 556
e 355 576
e 355 872
e 356 892
e 357 492
e 358 782
e 358 837
e 359 567
e 360 508
e 360 723
e 360 915
e 361 383
e 361 928
e 362 695
e 363 377
e 363 676
e 364 847
e 364 920
e 366 672
e 366 895
e 367 453
e 367 669
e 367 843
e 368 469
e 368 770
e 368 952
e 370 390
e 371 621
e 371 792
e 372 622
e 373 801
e 373 803
e 374 799
e 375 560
e 375 646
e 375 876
e 376 716
e 376 764
e 376 768
e 377 882
e 377 902
e 378 431
e 378 688
e 378 885
e 379 647
e 379 656
e 381 566
e 381 776
e 382 403
e 382 571
e 383 959
e 384 549
e 385 429
e 385 744
e 385 942
e 386 669
e 386 906
e 387 479
e 387 921
e 387 995
e 388 448
e 388 910
e 389 450
e 389 686
e 390 482
e 391 467
e 391 490
e 391 838
e 392 710
e 393 539
e 393 756
e 393 816
e 394 398
e 394 615
e 394 624
e 395 455
e 396 427
e 396 595
e 396 752
e 399 682
e 399 739
e 399 976
e 400 744
e 400 839
e 401 409
e 401 551
e 402 884
e 402 950
e 404 568
e 405 491
e 405 622
e 405 985
e 406 478
e 406 685
e 407 612
e 408 527
e 408 667
e 409 927
e 410 499
e 410 572
e 410 578
e 411 886
e 412 426
e 412 606
e 413 555
e 414 921
e 414 940
e 415 603
e 415 653
e 416 881
e 416 938
e 417 512
e 417 525
e 418 519
e 418 636
e 418 984
e 419 640
e 419 736
e 420 511
e 420 614
e 420 932
e 421 541
e 421 618
e 421 782
e 422 469
e 422 837
e 424 466
e 424 570
e 425 524
e 425 726
e 425 806
e 426 890
e 426 988
e 427 697
e 427 894
e 428 664
e 428 900
e 429 695
e 429 823
e 430 621
e 430 979
e 431 641
e 431 924
e 432 436
e 432 731
e 432 732
e 433 458
e 433 571
e 435 484
e 435 905
e 435 975
e 437 550
e 439 817
e 439 953
e 439 954
e 440 796
e 440 818
e 440 868
e 441 705
e 441 836
e 442 715
e 442 898
e 443 495
e 443 526
e 445 739
e 445 809
e 445 875
e 446 723
e 446 799
e 446 864
e 448 452
e 449 665
e 449 992
e 450 628
e 450 777
e 451 555
e 451 563
e 451 788
e 453 771
e 453 913
e 454 503
e 454 646
e 454 896
e 455 483
e 455 484
e 456 686
e 456 743
e 457 933
e 458 479
e 458 518
e 459 504
e 460 816
e 460 862
e 460 959
e 461 496
e 461 717
e 461 823
e 462 501
e 462 888
e 463 577
e 464 750
e 464 775
e 464 927
e 465 650
e 465 918
e 467 790
e 467 866
e 468 566
e 470 802
e 470 931
e 471 600
e 471 714
e 472 575
e 472 744
e 472 838
e 473 589
e 474 515
e 474 656
e 475 514
e 475 547
e 475 851
e 476 741
e 476 950
e 477 968
e 479 965
e 480 621
e 480 913
e 480 993
e 481 884
e 483 772
e 484 551
e 485 964
e 486 592
e 487 654
e 487 957
e 488 666
e 488 688
e 490 895
e 491 581
e 492 650
e 493 684
e 493 805
e 493 848
e 494 658
e 494 806
e 494 820
e 495 852
e 496 561
e 497 742
e 498 500
e 499 662
e 499 899
e 501 930
e 502 814
e 502 817
e 502 831
e 504 956
e 505 535
e 505 584
e 506 897
e 507 700
e 508 896
e 509 717
e 509 785
e 509 920
e 510 658
e 510 825
e 511 625
e 511 878
e 512 538
e 512 797
e 513 974
e 514 673
e 514 754
e 515 980
e 516 529
e 516 977
e 517 885
e 517 985
e 519 740
e 521 527
e 521 552
e 521 553
e 523 632
e 523 785
e 524 798
e 525 852
e 525 878
e 527 557
e 528 642
e 529 714
e 529 785
e 530 653
e 530 943
e 530 962
e 531 542
e 532 718
e 532 738
e 532 809
e 533 728
e 533 810
e 534 699
e 534 977
e 536 789
e 537 700
e 537 708
e 538 850
e 539 593
e 539 890
e 540 611
e 541 873
e 542 815
e 543 620
e 543 659
e 544 821
e 544 894
e 544 914
e 545 613
e 545 901
e 546 597
e 546 972
e 547 719
e 548 849
e 548 934
e 549 554
e 549 793
e 550 757
e 551 753
e 553 588
e 554 595
e 555 701
e 556 836
e 557 949
e 558 767
e 559 626
e 559 652
e 559 725
e 560 794
e 561 654
e 561 672
e 562 849
e 563 581
e 563 793
e 564 811
e 565 623
e 566 853
e 567 741
e 567 904
e 569 841
e 571 576
e 573 869
e 573 975
e 574 703
e 575 959
e 576 678
e 577 603
e 577 740
e 578 881
e 579 728
e 579 922
e 581 850
e 582 657
e 582 937
e 583 675
e 584 682
e 585 889
e 586 734
e 586 798
e 587 594
e 587 969
e 588 686
e 591 728
e 591 740
e 592 850
e 594 606
e 596 668
e 597 778
e 597 891
e 598 844
e 598 875
e 599 733
e 599 957
e 599 961
e 600 685
e 601 987
e 602 960
e 603 788
e 604 808
e 604 812
e 604 856
e 605 817
e 605 860
e 607 641
e 608 746
e 609 622
e 609 922
e 609 968
e 610 637
e 610 832
e 610 922
e 612 786
e 613 824
e 613 855
e 614 745
e 614 773
e 616 935
e 618 945
e 619 812
e 619 991
e 620 661
e 620 908
e 624 778
e 624 854
e 625 647
e 625 729
e 626 679
e 627 917
e 628 873
e 629 784
e 629 786
e 629 917
e 630 840
e 630 872
e 630 955
e 631 731
e 632 861
e 633 761
e 633 842
e 634 707
e 634 794
e 635 958
e 636 761
e 638 875
e 641 808
e 642 871
e 643 766
e 643 803
e 643 976
e 644 912
e 645 889
e 645 916
e 648 866
e 648 953
e 648 981
e 649 710
e 649 962
e 650 762
e 651 722
e 653 767
e 656 839
e 657 687
e 657 879
e 659 844
e 659 961
e 660 721
e 661 859
e 662 923
e 665 832
e 666 814
e 666 955
e 667 780
e 668 832
e 669 928
e 670 857
e 670 897
e 671 749
e 671 770
e 671 876
e 672 718
e 673 899
e 674 745
e 675 862
e 676 848
e 677 947
e 678 828
e 678 917
e 679 690
e 679 709
e 680 698
e 681 687
e 683 725
e 683 874
e 689 776
e 689 812
e 689 890
e 690 716
e 691 715
e 694 747
e 694 821
e 696 774
e 696 849
e 696 894
e 697 737
e 697 755
e 698 806
e 700 775
e 701 833
e 701 984
e 702 769
e 703 711
e 706 933
e 706 948
e 706 972
e 707 793
e 707 800
e 709 900
e 713 907
e 716 844
e 720 724
e 720 885
e 720 928
e 721 750
e 724 971
e 725 996
e 726 997
e 727 748
e 729 763
e 730 863
e 731 781
e 732 877
e 732 996
e 733 792
e 736 983
e 737 815
e 739 975
e 742 818
e 742 998
e 743 886
e 745 930
e 747 881
e 747 981
e 748 957
e 752 958
e 754 918
e 756 778
e 757 950
e 758 761
e 759 932
e 760 907
e 762 821
e 763 822
e 765 813
e 767 910
e 773 946
e 774 804
e 775 797
e 776 888
e 777 858
e 777 997
e 779 815
e 780 938
e 783 916
e 783 931
e 787 845
e 789 868
e 791 902
e 791 961
e 796 807
e 800 868
e 800 982
e 804 869
e 808 887
e 809 834
e 810 996
e 813 829
e 818 862
e 819 925
e 820 985
e 822 923
e 822 926
e 826 837
e 826 995
e 827 851
e 828 835
e 830 912
e 833 965
e 833 999
e 834 931
e 835 870
e 835 974
e 839 941
e 841 963
e 843 956
e 851 879
e 853 892
e 853 904
e 854 916
e 855 895
e 857 869
e 858 859
e 858 932
e 861 986
e 864 969
e 865 978
e 867 909
e 867 958
e 870 980
e 871 955
e 873 988
e 876 877
e 892 893
e 893 911
e 898 979
e 901 940
e 904 993
e 905 939
e 906 948
e 910 970
e 913 939
e 915 989
e 920 965
e 925 944
e 925 979
e 930 986
e 934 967
e 935 949
e 940 960
e 941 956
e 942 954
e 943 992
e 951 973
e 960 999
e 990 993
